NAME 
ROWS
 N  OBJ
 L  R0      
 L  R1      
 L  R2      
 E  R3      
COLUMNS
    MARKER    'MARKER'                 'INTORG'
    I0(4)     OBJ       -571
    I0(4)     R0        -634
    I0(4)     R1        -13
    I0(4)     R2        -538
    I0(4)     R3        507
    I1(4)     OBJ       -899
    I1(4)     R0        -801
    I1(4)     R1        -746
    I1(4)     R2        -473
    I1(4)     R3        902
    I2(4)     OBJ       -166
    I2(4)     R0        -559
    I2(4)     R1        -644
    I2(4)     R2        -779
    I2(4)     R3        796
    I3(4)     OBJ       -888
    I3(4)     R0        -591
    I3(4)     R1        -917
    I3(4)     R2        -704
    I3(4)     R3        66
    I4(4)     OBJ       -362
    I4(4)     R0        -875
    I4(4)     R1        -513
    I4(4)     R2        -361
    I4(4)     R3        493
    I5(4)     OBJ       -935
    I5(4)     R0        -136
    I5(4)     R1        -489
    I5(4)     R2        -141
    I5(4)     R3        671
    I6(4)     OBJ       -248
    I6(4)     R0        -673
    I6(4)     R1        -110
    I6(4)     R2        -638
    I6(4)     R3        201
    I7(4)     OBJ       -128
    I7(4)     R0        -455
    I7(4)     R1        -116
    I7(4)     R2        -608
    I7(4)     R3        165
    I8(4)     OBJ       -358
    I8(4)     R0        -482
    I8(4)     R1        -902
    I8(4)     R2        -268
    I8(4)     R3        125
    I9(4)     OBJ       -899
    I9(4)     R0        -283
    I9(4)     R1        -881
    I9(4)     R2        -995
    I9(4)     R3        682
    I10(1)    R3        1
    MARKER    'MARKER'                 'INTEND'
RHS
    RHS1      R0        -2799
    RHS1      R1        -3312
    RHS1      R2        -3284
    RHS1      R3        2304
BOUNDS
 UP BND1      I0(4)     1
 UP BND1      I1(4)     1
 UP BND1      I2(4)     1
 UP BND1      I3(4)     1
 UP BND1      I4(4)     1
 UP BND1      I5(4)     1
 UP BND1      I6(4)     1
 UP BND1      I7(4)     1
 UP BND1      I8(4)     1
 UP BND1      I9(4)     1
 LI BND1      I10(1)    0
ENDATA
